Route #1: 67 34 46 52 27 45 29 5 48 30
Route #2: 2 74 28 62 1 73 33 63 16 3 44 32
Route #3: 26 12 72 58 10 31 39 9 40 17
Route #4: 7 35 53 14 59 11 66 65 38
Route #5: 8 19 54 13 57 15 37 20 70 60 71 69 36 47 21
Route #6: 61 22 64 42 43 41 56 23 49 24 18 50 55 25
Route #7: 51 6 68 4 75
Cost 729